; benchmark generated from python API
(set-info :status unknown)
(declare-fun args_0_8 () (_ BitVec 8))
(declare-fun strlen_77_64 () (_ BitVec 64))
(declare-fun args_1_8 () (_ BitVec 8))
(declare-fun strlen_79_64 () (_ BitVec 64))
(declare-fun args_2_8 () (_ BitVec 8))
(declare-fun strlen_81_64 () (_ BitVec 64))
(declare-fun strlen_83_64 () (_ BitVec 64))
(declare-fun args_3_8 () (_ BitVec 8))
(declare-fun args_4_8 () (_ BitVec 8))
(declare-fun strlen_85_64 () (_ BitVec 64))
(declare-fun strlen_87_64 () (_ BitVec 64))
(declare-fun args_5_16 () (_ BitVec 16))
(declare-fun strlen_91_64 () (_ BitVec 64))
(declare-fun args_6_16 () (_ BitVec 16))
(declare-fun strlen_99_64 () (_ BitVec 64))
(declare-fun args_7_16 () (_ BitVec 16))
(declare-fun strlen_108_64 () (_ BitVec 64))
(declare-fun args_8_16 () (_ BitVec 16))
(declare-fun strlen_116_64 () (_ BitVec 64))
(declare-fun args_9_16 () (_ BitVec 16))
(declare-fun strlen_126_64 () (_ BitVec 64))
(declare-fun args_10_32 () (_ BitVec 32))
(declare-fun strlen_143_64 () (_ BitVec 64))
(declare-fun args_11_32 () (_ BitVec 32))
(declare-fun strlen_158_64 () (_ BitVec 64))
(declare-fun args_12_32 () (_ BitVec 32))
(declare-fun args_13_32 () (_ BitVec 32))
(declare-fun strlen_176_64 () (_ BitVec 64))
(declare-fun args_14_32 () (_ BitVec 32))
(declare-fun strlen_201_64 () (_ BitVec 64))
(declare-fun strlen_226_64 () (_ BitVec 64))
(declare-fun args_15_64 () (_ BitVec 64))
(declare-fun strlen_910_64 () (_ BitVec 64))
(declare-fun strlen_290_64 () (_ BitVec 64))
(declare-fun strlen_303_64 () (_ BitVec 64))
(declare-fun strlen_324_64 () (_ BitVec 64))
(declare-fun strlen_448_64 () (_ BitVec 64))
(declare-fun strlen_482_64 () (_ BitVec 64))
(declare-fun strlen_518_64 () (_ BitVec 64))
(declare-fun strlen_555_64 () (_ BitVec 64))
(declare-fun strlen_594_64 () (_ BitVec 64))
(declare-fun strlen_633_64 () (_ BitVec 64))
(declare-fun strlen_672_64 () (_ BitVec 64))
(declare-fun strlen_709_64 () (_ BitVec 64))
(declare-fun strlen_743_64 () (_ BitVec 64))
(declare-fun strlen_774_64 () (_ BitVec 64))
(declare-fun strlen_804_64 () (_ BitVec 64))
(declare-fun strlen_834_64 () (_ BitVec 64))
(declare-fun strlen_862_64 () (_ BitVec 64))
(declare-fun strlen_888_64 () (_ BitVec 64))
(declare-fun strlen_930_64 () (_ BitVec 64))
(declare-fun args_16_64 () (_ BitVec 64))
(declare-fun strlen_948_64 () (_ BitVec 64))
(declare-fun args_17_64 () (_ BitVec 64))
(declare-fun strlen_965_64 () (_ BitVec 64))
(declare-fun args_18_64 () (_ BitVec 64))
(declare-fun strlen_980_64 () (_ BitVec 64))
(declare-fun args_19_64 () (_ BitVec 64))
(declare-fun sys_time_1109_64 () (_ BitVec 64))
(declare-fun sys_time_1118_64 () (_ BitVec 64))
(assert
 (let (($x69 (= (_ bv0 8) args_0_8)))
 (not $x69)))
(assert
 (= (_ bv1 64) strlen_77_64))
(assert
 (let (($x359 (= (_ bv0 8) args_1_8)))
 (not $x359)))
(assert
 (= (_ bv1 64) strlen_79_64))
(assert
 (let (($x211 (= (_ bv0 8) args_2_8)))
 (not $x211)))
(assert
 (= (_ bv1 64) strlen_81_64))
(assert
 (= (_ bv1 64) strlen_83_64))
(assert
 (let (($x845 (= (_ bv0 8) args_3_8)))
 (not $x845)))
(assert
 (let (($x1140 (= (_ bv0 8) args_4_8)))
 (not $x1140)))
(assert
 (= (_ bv1 64) strlen_85_64))
(assert
 (= (_ bv2 64) strlen_87_64))
(assert
 (let ((?x1474 ((_ extract 15 8) args_5_16)))
 (let (($x1010 (= (_ bv0 8) ?x1474)))
 (not $x1010))))
(assert
 (let ((?x1473 ((_ extract 7 0) args_5_16)))
 (let (($x1480 (= (_ bv0 8) ?x1473)))
 (not $x1480))))
(assert
 (= (_ bv2 64) strlen_91_64))
(assert
 (let ((?x1906 ((_ extract 7 0) args_6_16)))
 (let (($x1220 (= (_ bv0 8) ?x1906)))
 (not $x1220))))
(assert
 (let ((?x1646 ((_ extract 15 8) args_6_16)))
 (let (($x1544 (= (_ bv0 8) ?x1646)))
 (not $x1544))))
(assert
 (= (_ bv2 64) strlen_99_64))
(assert
 (let ((?x944 ((_ extract 7 0) args_7_16)))
 (let (($x2153 (= (_ bv0 8) ?x944)))
 (not $x2153))))
(assert
 (let ((?x2056 ((_ extract 15 8) args_7_16)))
 (let (($x2419 (= (_ bv0 8) ?x2056)))
 (not $x2419))))
(assert
 (= (_ bv2 64) strlen_108_64))
(assert
 (let ((?x2766 ((_ extract 15 8) args_8_16)))
 (let (($x3226 (= (_ bv0 8) ?x2766)))
 (not $x3226))))
(assert
 (let ((?x2491 ((_ extract 7 0) args_8_16)))
 (let (($x3207 (= (_ bv0 8) ?x2491)))
 (not $x3207))))
(assert
 (= (_ bv2 64) strlen_116_64))
(assert
 (let ((?x3102 ((_ extract 15 8) args_9_16)))
 (let (($x3771 (= (_ bv0 8) ?x3102)))
 (not $x3771))))
(assert
 (let ((?x3735 ((_ extract 7 0) args_9_16)))
 (let (($x3581 (= (_ bv0 8) ?x3735)))
 (not $x3581))))
(assert
 (= (_ bv4 64) strlen_126_64))
(assert
 (let ((?x3761 ((_ extract 15 8) args_10_32)))
 (let (($x3847 (= (_ bv0 8) ?x3761)))
 (not $x3847))))
(assert
 (let ((?x3490 ((_ extract 7 0) args_10_32)))
 (let (($x3139 (= (_ bv0 8) ?x3490)))
 (not $x3139))))
(assert
 (let ((?x3388 ((_ extract 23 16) args_10_32)))
 (let (($x3778 (= (_ bv0 8) ?x3388)))
 (not $x3778))))
(assert
 (let ((?x3227 ((_ extract 31 24) args_10_32)))
 (let (($x3588 (= (_ bv0 8) ?x3227)))
 (not $x3588))))
(assert
 (= (_ bv4 64) strlen_143_64))
(assert
 (let ((?x5780 ((_ extract 15 8) args_11_32)))
 (let (($x5788 (= (_ bv0 8) ?x5780)))
 (not $x5788))))
(assert
 (let ((?x5702 ((_ extract 7 0) args_11_32)))
 (let (($x5773 (= (_ bv0 8) ?x5702)))
 (not $x5773))))
(assert
 (let ((?x5688 ((_ extract 23 16) args_11_32)))
 (let (($x5775 (= (_ bv0 8) ?x5688)))
 (not $x5775))))
(assert
 (let ((?x5760 ((_ extract 31 24) args_11_32)))
 (let (($x5875 (= (_ bv0 8) ?x5760)))
 (not $x5875))))
(assert
 (= (_ bv4 64) strlen_158_64))
(assert
 (let ((?x6440 ((_ extract 7 0) args_12_32)))
 (let (($x6436 (= (_ bv0 8) ?x6440)))
 (not $x6436))))
(assert
 (let ((?x5236 ((_ extract 31 24) args_12_32)))
 (let (($x7048 (= (_ bv0 8) ?x5236)))
 (not $x7048))))
(assert
 (let ((?x7075 ((_ extract 15 8) args_12_32)))
 (let (($x5268 (= (_ bv0 8) ?x7075)))
 (not $x5268))))
(assert
 (let ((?x5265 ((_ extract 23 16) args_12_32)))
 (let (($x4918 (= (_ bv0 8) ?x5265)))
 (not $x4918))))
(assert
 (let ((?x8516 ((_ extract 31 24) args_13_32)))
 (let (($x8529 (= (_ bv0 8) ?x8516)))
 (not $x8529))))
(assert
 (let ((?x8547 ((_ extract 23 16) args_13_32)))
 (let (($x7742 (= (_ bv0 8) ?x8547)))
 (not $x7742))))
(assert
 (let ((?x8592 ((_ extract 7 0) args_13_32)))
 (let (($x8567 (= (_ bv0 8) ?x8592)))
 (not $x8567))))
(assert
 (let ((?x8497 ((_ extract 15 8) args_13_32)))
 (let (($x8524 (= (_ bv0 8) ?x8497)))
 (not $x8524))))
(assert
 (= (_ bv4 64) strlen_176_64))
(assert
 (let ((?x8747 ((_ extract 23 16) args_14_32)))
 (let (($x8600 (= (_ bv0 8) ?x8747)))
 (not $x8600))))
(assert
 (let ((?x8754 ((_ extract 15 8) args_14_32)))
 (let (($x8818 (= (_ bv0 8) ?x8754)))
 (not $x8818))))
(assert
 (let ((?x8789 ((_ extract 31 24) args_14_32)))
 (let (($x8713 (= (_ bv0 8) ?x8789)))
 (not $x8713))))
(assert
 (let ((?x8685 ((_ extract 7 0) args_14_32)))
 (let (($x8778 (= (_ bv0 8) ?x8685)))
 (not $x8778))))
(assert
 (= (_ bv4 64) strlen_201_64))
(assert
 (let ((?x13647 ((_ extract 63 63) strlen_226_64)))
 (= (_ bv0 1) ?x13647)))
(assert
 (let ((?x13637 (bvadd (_ bv576460752303357874 64) strlen_226_64)))
 (let ((?x12719 ((_ extract 7 0) args_15_64)))
 (let (($x12599 (= (_ bv0 8) ?x12719)))
 (let ((?x13251 (ite $x12599 (_ bv576460752303357881 64) (_ bv576460752303357882 64))))
 (let ((?x12687 ((_ extract 15 8) args_15_64)))
 (let (($x12671 (= (_ bv0 8) ?x12687)))
 (let ((?x13247 (ite $x12671 (_ bv576460752303357880 64) ?x13251)))
 (let ((?x12566 ((_ extract 23 16) args_15_64)))
 (let (($x12715 (= (_ bv0 8) ?x12566)))
 (let ((?x13261 (ite $x12715 (_ bv576460752303357879 64) ?x13247)))
 (let ((?x12654 ((_ extract 31 24) args_15_64)))
 (let (($x12645 (= (_ bv0 8) ?x12654)))
 (let ((?x12676 (ite $x12645 (_ bv576460752303357878 64) ?x13261)))
 (let ((?x12395 ((_ extract 39 32) args_15_64)))
 (let (($x12668 (= (_ bv0 8) ?x12395)))
 (let ((?x12427 (ite $x12668 (_ bv576460752303357877 64) ?x12676)))
 (let ((?x12620 ((_ extract 47 40) args_15_64)))
 (let (($x12529 (= (_ bv0 8) ?x12620)))
 (let ((?x12859 (ite $x12529 (_ bv576460752303357876 64) ?x12427)))
 (let ((?x12640 ((_ extract 55 48) args_15_64)))
 (let (($x12613 (= (_ bv0 8) ?x12640)))
 (let ((?x13528 (ite $x12613 (_ bv576460752303357875 64) ?x12859)))
 (let ((?x12684 ((_ extract 63 56) args_15_64)))
 (let (($x12730 (= (_ bv0 8) ?x12684)))
 (let ((?x13670 (ite $x12730 (_ bv576460752303357874 64) ?x13528)))
 (= ?x13670 ?x13637)))))))))))))))))))))))))))
(assert
 (let ((?x103394 (bvadd (_ bv576460752303357874 64) strlen_910_64)))
 (let ((?x12719 ((_ extract 7 0) args_15_64)))
 (let (($x12599 (= (_ bv0 8) ?x12719)))
 (let ((?x13251 (ite $x12599 (_ bv576460752303357881 64) (_ bv576460752303357882 64))))
 (let ((?x12687 ((_ extract 15 8) args_15_64)))
 (let (($x12671 (= (_ bv0 8) ?x12687)))
 (let ((?x13247 (ite $x12671 (_ bv576460752303357880 64) ?x13251)))
 (let ((?x12566 ((_ extract 23 16) args_15_64)))
 (let (($x12715 (= (_ bv0 8) ?x12566)))
 (let ((?x13261 (ite $x12715 (_ bv576460752303357879 64) ?x13247)))
 (let ((?x12654 ((_ extract 31 24) args_15_64)))
 (let (($x12645 (= (_ bv0 8) ?x12654)))
 (let ((?x12676 (ite $x12645 (_ bv576460752303357878 64) ?x13261)))
 (let ((?x12395 ((_ extract 39 32) args_15_64)))
 (let (($x12668 (= (_ bv0 8) ?x12395)))
 (let ((?x12427 (ite $x12668 (_ bv576460752303357877 64) ?x12676)))
 (let ((?x12620 ((_ extract 47 40) args_15_64)))
 (let (($x12529 (= (_ bv0 8) ?x12620)))
 (let ((?x12859 (ite $x12529 (_ bv576460752303357876 64) ?x12427)))
 (let ((?x12640 ((_ extract 55 48) args_15_64)))
 (let (($x12613 (= (_ bv0 8) ?x12640)))
 (let ((?x13528 (ite $x12613 (_ bv576460752303357875 64) ?x12859)))
 (let ((?x12684 ((_ extract 63 56) args_15_64)))
 (let (($x12730 (= (_ bv0 8) ?x12684)))
 (let ((?x13670 (ite $x12730 (_ bv576460752303357874 64) ?x13528)))
 (= ?x13670 ?x103394)))))))))))))))))))))))))))
(assert
 (let ((?x103527 (bvadd (_ bv1 64) strlen_910_64)))
 (let ((?x103475 ((_ extract 63 4) ?x103527)))
 (= (_ bv0 60) ?x103475))))
(assert
 (let ((?x103548 ((_ extract 3 0) strlen_910_64)))
 (let ((?x102897 (bvadd (_ bv1 4) ?x103548)))
 (bvule ?x102897 (_ bv8 4)))))
(assert
 (= (_ bv1 64) strlen_290_64))
(assert
 (= (_ bv1 64) strlen_303_64))
(assert
 (= (_ bv1 64) strlen_324_64))
(assert
 (= (_ bv1 64) strlen_448_64))
(assert
 (= (_ bv1 64) strlen_482_64))
(assert
 (= (_ bv1 64) strlen_518_64))
(assert
 (= (_ bv1 64) strlen_555_64))
(assert
 (= (_ bv2 64) strlen_594_64))
(assert
 (= (_ bv2 64) strlen_633_64))
(assert
 (= (_ bv2 64) strlen_672_64))
(assert
 (= (_ bv2 64) strlen_709_64))
(assert
 (= (_ bv2 64) strlen_743_64))
(assert
 (= (_ bv4 64) strlen_774_64))
(assert
 (= (_ bv4 64) strlen_804_64))
(assert
 (= (_ bv4 64) strlen_834_64))
(assert
 (= (_ bv4 64) strlen_862_64))
(assert
 (= (_ bv4 64) strlen_888_64))
(assert
 (let ((?x105923 (bvadd (_ bv576460752303357883 64) strlen_930_64)))
 (let ((?x16071 ((_ extract 7 0) args_16_64)))
 (let (($x15893 (= (_ bv0 8) ?x16071)))
 (let ((?x18009 (ite $x15893 (_ bv576460752303357890 64) (_ bv576460752303357891 64))))
 (let ((?x15920 ((_ extract 15 8) args_16_64)))
 (let (($x15905 (= (_ bv0 8) ?x15920)))
 (let ((?x18038 (ite $x15905 (_ bv576460752303357889 64) ?x18009)))
 (let ((?x16120 ((_ extract 23 16) args_16_64)))
 (let (($x16040 (= (_ bv0 8) ?x16120)))
 (let ((?x18044 (ite $x16040 (_ bv576460752303357888 64) ?x18038)))
 (let ((?x16091 ((_ extract 31 24) args_16_64)))
 (let (($x16125 (= (_ bv0 8) ?x16091)))
 (let ((?x18036 (ite $x16125 (_ bv576460752303357887 64) ?x18044)))
 (let ((?x16044 ((_ extract 39 32) args_16_64)))
 (let (($x16109 (= (_ bv0 8) ?x16044)))
 (let ((?x18029 (ite $x16109 (_ bv576460752303357886 64) ?x18036)))
 (let ((?x15231 ((_ extract 47 40) args_16_64)))
 (let (($x15832 (= (_ bv0 8) ?x15231)))
 (let ((?x18021 (ite $x15832 (_ bv576460752303357885 64) ?x18029)))
 (let ((?x15951 ((_ extract 55 48) args_16_64)))
 (let (($x15924 (= (_ bv0 8) ?x15951)))
 (let ((?x18015 (ite $x15924 (_ bv576460752303357884 64) ?x18021)))
 (let ((?x15821 ((_ extract 63 56) args_16_64)))
 (let (($x15881 (= (_ bv0 8) ?x15821)))
 (let ((?x18001 (ite $x15881 (_ bv576460752303357883 64) ?x18015)))
 (= ?x18001 ?x105923)))))))))))))))))))))))))))
(assert
 (let ((?x106303 (bvadd (_ bv1 64) strlen_930_64)))
 (let ((?x106039 ((_ extract 63 4) ?x106303)))
 (= (_ bv0 60) ?x106039))))
(assert
 (let ((?x106265 ((_ extract 3 0) strlen_930_64)))
 (let ((?x106047 (bvadd (_ bv1 4) ?x106265)))
 (bvule ?x106047 (_ bv9 4)))))
(assert
 (bvule strlen_930_64 (_ bv18446744073709551614 64)))
(assert
 (let ((?x108475 (bvadd (_ bv576460752303357892 64) strlen_948_64)))
 (let ((?x17285 ((_ extract 7 0) args_17_64)))
 (let (($x13048 (= (_ bv0 8) ?x17285)))
 (let ((?x19912 (ite $x13048 (_ bv576460752303357899 64) (_ bv576460752303357900 64))))
 (let ((?x16045 ((_ extract 15 8) args_17_64)))
 (let (($x16281 (= (_ bv0 8) ?x16045)))
 (let ((?x23127 (ite $x16281 (_ bv576460752303357898 64) ?x19912)))
 (let ((?x13888 ((_ extract 23 16) args_17_64)))
 (let (($x13927 (= (_ bv0 8) ?x13888)))
 (let ((?x22133 (ite $x13927 (_ bv576460752303357897 64) ?x23127)))
 (let ((?x16166 ((_ extract 31 24) args_17_64)))
 (let (($x14506 (= (_ bv0 8) ?x16166)))
 (let ((?x19735 (ite $x14506 (_ bv576460752303357896 64) ?x22133)))
 (let ((?x14555 ((_ extract 39 32) args_17_64)))
 (let (($x16257 (= (_ bv0 8) ?x14555)))
 (let ((?x20072 (ite $x16257 (_ bv576460752303357895 64) ?x19735)))
 (let ((?x16160 ((_ extract 47 40) args_17_64)))
 (let (($x17914 (= (_ bv0 8) ?x16160)))
 (let ((?x19859 (ite $x17914 (_ bv576460752303357894 64) ?x20072)))
 (let ((?x17949 ((_ extract 55 48) args_17_64)))
 (let (($x16357 (= (_ bv0 8) ?x17949)))
 (let ((?x20112 (ite $x16357 (_ bv576460752303357893 64) ?x19859)))
 (let ((?x16175 ((_ extract 63 56) args_17_64)))
 (let (($x16341 (= (_ bv0 8) ?x16175)))
 (let ((?x19993 (ite $x16341 (_ bv576460752303357892 64) ?x20112)))
 (= ?x19993 ?x108475)))))))))))))))))))))))))))
(assert
 (let ((?x108994 (bvadd (_ bv1 64) strlen_948_64)))
 (let ((?x108806 ((_ extract 63 4) ?x108994)))
 (= (_ bv0 60) ?x108806))))
(assert
 (let ((?x105581 ((_ extract 3 0) strlen_948_64)))
 (let ((?x108733 (bvadd (_ bv1 4) ?x105581)))
 (bvule ?x108733 (_ bv9 4)))))
(assert
 (bvule strlen_948_64 (_ bv18446744073709551614 64)))
(assert
 (let ((?x110792 (bvadd (_ bv576460752303357901 64) strlen_965_64)))
 (let ((?x21369 ((_ extract 7 0) args_18_64)))
 (let (($x23356 (= (_ bv0 8) ?x21369)))
 (let ((?x24376 (ite $x23356 (_ bv576460752303357908 64) (_ bv576460752303357909 64))))
 (let ((?x17981 ((_ extract 15 8) args_18_64)))
 (let (($x20999 (= (_ bv0 8) ?x17981)))
 (let ((?x24277 (ite $x20999 (_ bv576460752303357907 64) ?x24376)))
 (let ((?x23399 ((_ extract 23 16) args_18_64)))
 (let (($x23441 (= (_ bv0 8) ?x23399)))
 (let ((?x24342 (ite $x23441 (_ bv576460752303357906 64) ?x24277)))
 (let ((?x21200 ((_ extract 31 24) args_18_64)))
 (let (($x23434 (= (_ bv0 8) ?x21200)))
 (let ((?x24281 (ite $x23434 (_ bv576460752303357905 64) ?x24342)))
 (let ((?x18357 ((_ extract 39 32) args_18_64)))
 (let (($x23108 (= (_ bv0 8) ?x18357)))
 (let ((?x26188 (ite $x23108 (_ bv576460752303357904 64) ?x24281)))
 (let ((?x23328 ((_ extract 47 40) args_18_64)))
 (let (($x17902 (= (_ bv0 8) ?x23328)))
 (let ((?x26208 (ite $x17902 (_ bv576460752303357903 64) ?x26188)))
 (let ((?x15573 ((_ extract 55 48) args_18_64)))
 (let (($x23188 (= (_ bv0 8) ?x15573)))
 (let ((?x26014 (ite $x23188 (_ bv576460752303357902 64) ?x26208)))
 (let ((?x18296 ((_ extract 63 56) args_18_64)))
 (let (($x23498 (= (_ bv0 8) ?x18296)))
 (let ((?x25991 (ite $x23498 (_ bv576460752303357901 64) ?x26014)))
 (= ?x25991 ?x110792)))))))))))))))))))))))))))
(assert
 (let ((?x111119 (bvadd (_ bv1 64) strlen_965_64)))
 (let ((?x110936 ((_ extract 63 4) ?x111119)))
 (= (_ bv0 60) ?x110936))))
(assert
 (let ((?x110993 ((_ extract 3 0) strlen_965_64)))
 (let ((?x110931 (bvadd (_ bv1 4) ?x110993)))
 (bvule ?x110931 (_ bv9 4)))))
(assert
 (bvule strlen_965_64 (_ bv18446744073709551614 64)))
(assert
 (let ((?x110263 (bvadd (_ bv576460752303357910 64) strlen_980_64)))
 (let ((?x27336 ((_ extract 7 0) args_19_64)))
 (let (($x27385 (= (_ bv0 8) ?x27336)))
 (let ((?x20231 (ite $x27385 (_ bv576460752303357917 64) (_ bv576460752303357918 64))))
 (let ((?x25557 ((_ extract 15 8) args_19_64)))
 (let (($x25388 (= (_ bv0 8) ?x25557)))
 (let ((?x19999 (ite $x25388 (_ bv576460752303357916 64) ?x20231)))
 (let ((?x27267 ((_ extract 23 16) args_19_64)))
 (let (($x27378 (= (_ bv0 8) ?x27267)))
 (let ((?x20088 (ite $x27378 (_ bv576460752303357915 64) ?x19999)))
 (let ((?x25573 ((_ extract 31 24) args_19_64)))
 (let (($x27315 (= (_ bv0 8) ?x25573)))
 (let ((?x20060 (ite $x27315 (_ bv576460752303357914 64) ?x20088)))
 (let ((?x25213 ((_ extract 39 32) args_19_64)))
 (let (($x23385 (= (_ bv0 8) ?x25213)))
 (let ((?x20235 (ite $x23385 (_ bv576460752303357913 64) ?x20060)))
 (let ((?x27324 ((_ extract 47 40) args_19_64)))
 (let (($x27088 (= (_ bv0 8) ?x27324)))
 (let ((?x20237 (ite $x27088 (_ bv576460752303357912 64) ?x20235)))
 (let ((?x24874 ((_ extract 55 48) args_19_64)))
 (let (($x25431 (= (_ bv0 8) ?x24874)))
 (let ((?x20239 (ite $x25431 (_ bv576460752303357911 64) ?x20237)))
 (let ((?x27258 ((_ extract 63 56) args_19_64)))
 (let (($x26264 (= (_ bv0 8) ?x27258)))
 (let ((?x20241 (ite $x26264 (_ bv576460752303357910 64) ?x20239)))
 (= ?x20241 ?x110263)))))))))))))))))))))))))))
(assert
 (let ((?x113096 (bvadd (_ bv1 64) strlen_980_64)))
 (let ((?x112971 ((_ extract 63 4) ?x113096)))
 (= (_ bv0 60) ?x112971))))
(assert
 (let ((?x113041 ((_ extract 3 0) strlen_980_64)))
 (let ((?x109977 (bvadd (_ bv1 4) ?x113041)))
 (bvule ?x109977 (_ bv9 4)))))
(assert
 (bvule strlen_980_64 (_ bv18446744073709551614 64)))
(assert
 (bvsle (_ bv0 64) sys_time_1109_64))
(assert
 (bvsge sys_time_1118_64 sys_time_1109_64))
(minimize args_3_8)
(maximize sys_time_1109_64)
(minimize strlen_226_64)
(minimize strlen_303_64)
(maximize strlen_303_64)
(minimize strlen_201_64)
(maximize args_4_8)
(maximize strlen_518_64)
(maximize strlen_158_64)
(maximize strlen_633_64)
(minimize strlen_948_64)
(minimize strlen_594_64)
(minimize strlen_176_64)
(minimize strlen_126_64)
(maximize strlen_143_64)
(maximize strlen_834_64)
(minimize args_12_32)
(minimize strlen_99_64)
(minimize args_16_64)
(minimize args_19_64)
(minimize strlen_888_64)
(minimize sys_time_1109_64)
(minimize args_18_64)
(minimize strlen_324_64)
(minimize args_10_32)
(maximize strlen_930_64)
(minimize args_4_8)
(maximize strlen_324_64)
(maximize strlen_862_64)
(maximize sys_time_1118_64)
(maximize args_0_8)
(maximize args_18_64)
(minimize strlen_108_64)
(minimize strlen_158_64)
(maximize args_7_16)
(maximize args_13_32)
(maximize strlen_804_64)
(maximize args_1_8)
(maximize strlen_709_64)
(maximize strlen_108_64)
(minimize strlen_143_64)
(maximize strlen_965_64)
(maximize strlen_888_64)
(minimize strlen_965_64)
(maximize strlen_85_64)
(minimize strlen_91_64)
(maximize args_12_32)
(minimize args_0_8)
(minimize strlen_518_64)
(minimize strlen_83_64)
(minimize args_17_64)
(minimize strlen_930_64)
(maximize strlen_555_64)
(maximize strlen_83_64)
(minimize strlen_116_64)
(minimize strlen_633_64)
(minimize strlen_709_64)
(maximize args_19_64)
(minimize args_5_16)
(minimize strlen_980_64)
(maximize args_17_64)
(maximize args_6_16)
(maximize strlen_77_64)
(maximize strlen_201_64)
(maximize args_16_64)
(minimize args_15_64)
(minimize strlen_79_64)
(maximize strlen_482_64)
(maximize strlen_672_64)
(maximize strlen_126_64)
(maximize strlen_594_64)
(maximize strlen_448_64)
(minimize strlen_87_64)
(maximize strlen_290_64)
(minimize sys_time_1118_64)
(minimize strlen_81_64)
(minimize strlen_555_64)
(maximize args_2_8)
(minimize args_2_8)
(check-sat)
(get-objectives)
